(set-logic HORN)

(declare-fun $main_inv169 ((Array Int Int) (Array Int Int) (Array Int Int) (Array Int Int) (Array Int Int) (Array Int Int) (Array Int Int) (Array Int Int) Int Int Int) Bool)
(declare-fun $main_sum171 ((Array Int Int) (Array Int Int) (Array Int Int) (Array Int Int) (Array Int Int) (Array Int Int) (Array Int Int) (Array Int Int) Int Int Int) Bool)
(declare-fun $main_inv165 ((Array Int Int) (Array Int Int) (Array Int Int) (Array Int Int) (Array Int Int) (Array Int Int) (Array Int Int) (Array Int Int) Int Int Int) Bool)
(declare-fun __VERIFIER_assert (Int) Bool)
(declare-fun $main_inv172 ((Array Int Int) (Array Int Int) (Array Int Int) (Array Int Int) (Array Int Int) (Array Int Int) (Array Int Int) (Array Int Int) Int Int Int) Bool)
(declare-fun $main_sum167 ((Array Int Int) (Array Int Int) (Array Int Int) (Array Int Int) (Array Int Int) (Array Int Int) (Array Int Int) (Array Int Int) Int Int Int) Bool)
(declare-fun $main_inv171 ((Array Int Int) (Array Int Int) (Array Int Int) (Array Int Int) (Array Int Int) (Array Int Int) (Array Int Int) (Array Int Int) Int Int Int) Bool)
(declare-fun $main_sum169 ((Array Int Int) (Array Int Int) (Array Int Int) (Array Int Int) (Array Int Int) (Array Int Int) (Array Int Int) (Array Int Int) Int Int Int) Bool)
(declare-fun $main_sum168 ((Array Int Int) (Array Int Int) (Array Int Int) (Array Int Int) (Array Int Int) (Array Int Int) (Array Int Int) (Array Int Int) Int Int Int) Bool)
(declare-fun $main_sum166 ((Array Int Int) (Array Int Int) (Array Int Int) (Array Int Int) (Array Int Int) (Array Int Int) (Array Int Int) (Array Int Int) Int Int Int) Bool)
(declare-fun $main_sum170 ((Array Int Int) (Array Int Int) (Array Int Int) (Array Int Int) (Array Int Int) (Array Int Int) (Array Int Int) (Array Int Int) Int Int Int) Bool)
(declare-fun $__VERIFIER_assert_if56 (Int) Bool)
(declare-fun $main_inv164 ((Array Int Int) (Array Int Int) (Array Int Int) (Array Int Int) (Array Int Int) (Array Int Int) (Array Int Int) (Array Int Int) Int Int Int) Bool)
(declare-fun $main_sum172 ((Array Int Int) (Array Int Int) (Array Int Int) (Array Int Int) (Array Int Int) (Array Int Int) (Array Int Int) (Array Int Int) Int Int Int) Bool)
(declare-fun $main_inv170 ((Array Int Int) (Array Int Int) (Array Int Int) (Array Int Int) (Array Int Int) (Array Int Int) (Array Int Int) (Array Int Int) Int Int Int) Bool)
(declare-fun $__VERIFIER_assert_ERROR (Int) Bool)
(declare-fun $__VERIFIER_assert_pre (Int) Bool)
(declare-fun $main_sum164 ((Array Int Int) (Array Int Int) (Array Int Int) (Array Int Int) (Array Int Int) (Array Int Int) (Array Int Int) (Array Int Int) Int Int Int) Bool)
(declare-fun $main_sum165 ((Array Int Int) (Array Int Int) (Array Int Int) (Array Int Int) (Array Int Int) (Array Int Int) (Array Int Int) (Array Int Int) Int Int Int) Bool)
(declare-fun $main_inv168 ((Array Int Int) (Array Int Int) (Array Int Int) (Array Int Int) (Array Int Int) (Array Int Int) (Array Int Int) (Array Int Int) Int Int Int) Bool)
(declare-fun $main_inv166 ((Array Int Int) (Array Int Int) (Array Int Int) (Array Int Int) (Array Int Int) (Array Int Int) (Array Int Int) (Array Int Int) Int Int Int) Bool)
(declare-fun $main_inv167 ((Array Int Int) (Array Int Int) (Array Int Int) (Array Int Int) (Array Int Int) (Array Int Int) (Array Int Int) (Array Int Int) Int Int Int) Bool)

; label ERROR
(assert
  (forall ((cond Int))
    (=> (and (= cond 0)
             ($__VERIFIER_assert_pre cond))
        ($__VERIFIER_assert_ERROR cond))))

; error
(assert
  (forall ((cond2682 Int))
    (=> (and ($__VERIFIER_assert_ERROR cond2682))
        false)))

; if else
(assert
  (forall ((cond Int))
    (=> (and (not (= cond 0))
             ($__VERIFIER_assert_pre cond))
        ($__VERIFIER_assert_if56 cond))))

; post __VERIFIER_assert
(assert
  (forall ((cond2683 Int))
    (=> (and ($__VERIFIER_assert_if56 cond2683))
        (__VERIFIER_assert cond2683))))

; loop entry $main_inv164
(assert
  (forall (($a8262 (Array Int Int)) ($x265 Int) ($i264 Int) ($a4258 (Array Int Int)) ($a1255 (Array Int Int)) ($a2256 (Array Int Int)) ($a3257 (Array Int Int)) ($a7261 (Array Int Int)) ($a5259 (Array Int Int)) ($a6260 (Array Int Int)))
        ($main_inv164 $a1255 $a2256 $a3257 $a4258 $a5259 $a6260 $a7261 $a8262 0 $i264 $x265)))

; loop term $main_sum164
(assert
  (forall (($a52592688 (Array Int Int)) ($i2642693 Int) ($a2632692 Int) ($x2652694 Int) ($a82622691 (Array Int Int)) ($a62602689 (Array Int Int)) ($a42582687 (Array Int Int)) ($a12552684 (Array Int Int)) ($a22562685 (Array Int Int)) ($a32572686 (Array Int Int)) ($a72612690 (Array Int Int)))
    (=> (and (not (< $a2632692 100000))
             ($main_inv164 $a12552684 $a22562685 $a32572686 $a42582687 $a52592688 $a62602689 $a72612690 $a82622691 $a2632692 $i2642693 $x2652694))
        ($main_sum164 $a12552684 $a22562685 $a32572686 $a42582687 $a52592688 $a62602689 $a72612690 $a82622691 $a2632692 $i2642693 $x2652694))))

; forwards $main_inv164
(assert
  (forall (($a52592688 (Array Int Int)) ($i2642693 Int) ($a2632692 Int) ($x2652694 Int) ($int2695 Int) ($a82622691 (Array Int Int)) ($a62602689 (Array Int Int)) ($a42582687 (Array Int Int)) ($a12552684 (Array Int Int)) ($a22562685 (Array Int Int)) ($a32572686 (Array Int Int)) ($a72612690 (Array Int Int)))
    (=> (and (<= (- 2147483648) $int2695)
             (<= $int2695 2147483647)
             (< $a2632692 100000)
             ($main_inv164 $a12552684 $a22562685 $a32572686 $a42582687 $a52592688 $a62602689 $a72612690 $a82622691 $a2632692 $i2642693 $x2652694))
        ($main_inv164 (store $a12552684 $a2632692 $int2695) $a22562685 $a32572686 $a42582687 $a52592688 $a62602689 $a72612690 $a82622691 (+ $a2632692 1) $i2642693 $x2652694))))

; loop entry $main_inv165
(assert
  (forall (($i2642705 Int) ($a22562697 (Array Int Int)) ($a72612702 (Array Int Int)) ($a32572698 (Array Int Int)) ($x2652706 Int) ($a12552696 (Array Int Int)) ($a52592700 (Array Int Int)) ($a62602701 (Array Int Int)) ($a42582699 (Array Int Int)) ($a2632704 Int) ($a82622703 (Array Int Int)))
    (=> (and ($main_sum164 $a12552696 $a22562697 $a32572698 $a42582699 $a52592700 $a62602701 $a72612702 $a82622703 $a2632704 $i2642705 $x2652706))
        ($main_inv165 $a12552696 $a22562697 $a32572698 $a42582699 $a52592700 $a62602701 $a72612702 $a82622703 $a2632704 0 $x2652706))))

; loop term $main_sum165
(assert
  (forall (($a62602712 (Array Int Int)) ($a52592711 (Array Int Int)) ($a2632715 Int) ($a22562708 (Array Int Int)) ($a72612713 (Array Int Int)) ($a82622714 (Array Int Int)) ($a12552707 (Array Int Int)) ($a42582710 (Array Int Int)) ($x2652717 Int) ($a32572709 (Array Int Int)) ($i2642716 Int))
    (=> (and (not (< $i2642716 100000))
             ($main_inv165 $a12552707 $a22562708 $a32572709 $a42582710 $a52592711 $a62602712 $a72612713 $a82622714 $a2632715 $i2642716 $x2652717))
        ($main_sum165 $a12552707 $a22562708 $a32572709 $a42582710 $a52592711 $a62602712 $a72612713 $a82622714 $a2632715 $i2642716 $x2652717))))

; forwards $main_inv165
(assert
  (forall (($a62602712 (Array Int Int)) ($a52592711 (Array Int Int)) ($a2632715 Int) ($a22562708 (Array Int Int)) ($a72612713 (Array Int Int)) ($a82622714 (Array Int Int)) ($a12552707 (Array Int Int)) ($a42582710 (Array Int Int)) ($x2652717 Int) ($a32572709 (Array Int Int)) ($i2642716 Int))
    (=> (and (< $i2642716 100000)
             ($main_inv165 $a12552707 $a22562708 $a32572709 $a42582710 $a52592711 $a62602712 $a72612713 $a82622714 $a2632715 $i2642716 $x2652717))
        ($main_inv165 $a12552707 (store $a22562708 $i2642716 (select $a12552707 $i2642716)) $a32572709 $a42582710 $a52592711 $a62602712 $a72612713 $a82622714 $a2632715 (+ $i2642716 1) $x2652717))))

; loop entry $main_inv166
(assert
  (forall (($a62602723 (Array Int Int)) ($a12552718 (Array Int Int)) ($a82622725 (Array Int Int)) ($i2642727 Int) ($a52592722 (Array Int Int)) ($a42582721 (Array Int Int)) ($a22562719 (Array Int Int)) ($a32572720 (Array Int Int)) ($a2632726 Int) ($x2652728 Int) ($a72612724 (Array Int Int)))
    (=> (and ($main_sum165 $a12552718 $a22562719 $a32572720 $a42582721 $a52592722 $a62602723 $a72612724 $a82622725 $a2632726 $i2642727 $x2652728))
        ($main_inv166 $a12552718 $a22562719 $a32572720 $a42582721 $a52592722 $a62602723 $a72612724 $a82622725 $a2632726 0 $x2652728))))

; loop term $main_sum166
(assert
  (forall (($i2642738 Int) ($x2652739 Int) ($a52592733 (Array Int Int)) ($a82622736 (Array Int Int)) ($a72612735 (Array Int Int)) ($a12552729 (Array Int Int)) ($a22562730 (Array Int Int)) ($a32572731 (Array Int Int)) ($a62602734 (Array Int Int)) ($a2632737 Int) ($a42582732 (Array Int Int)))
    (=> (and (not (< $i2642738 100000))
             ($main_inv166 $a12552729 $a22562730 $a32572731 $a42582732 $a52592733 $a62602734 $a72612735 $a82622736 $a2632737 $i2642738 $x2652739))
        ($main_sum166 $a12552729 $a22562730 $a32572731 $a42582732 $a52592733 $a62602734 $a72612735 $a82622736 $a2632737 $i2642738 $x2652739))))

; forwards $main_inv166
(assert
  (forall (($i2642738 Int) ($x2652739 Int) ($a52592733 (Array Int Int)) ($a82622736 (Array Int Int)) ($a72612735 (Array Int Int)) ($a12552729 (Array Int Int)) ($a22562730 (Array Int Int)) ($a32572731 (Array Int Int)) ($a62602734 (Array Int Int)) ($a2632737 Int) ($a42582732 (Array Int Int)))
    (=> (and (< $i2642738 100000)
             ($main_inv166 $a12552729 $a22562730 $a32572731 $a42582732 $a52592733 $a62602734 $a72612735 $a82622736 $a2632737 $i2642738 $x2652739))
        ($main_inv166 $a12552729 $a22562730 (store $a32572731 $i2642738 (select $a22562730 $i2642738)) $a42582732 $a52592733 $a62602734 $a72612735 $a82622736 $a2632737 (+ $i2642738 1) $x2652739))))

; loop entry $main_inv167
(assert
  (forall (($x2652750 Int) ($a12552740 (Array Int Int)) ($a72612746 (Array Int Int)) ($a62602745 (Array Int Int)) ($a22562741 (Array Int Int)) ($a2632748 Int) ($a82622747 (Array Int Int)) ($a52592744 (Array Int Int)) ($a42582743 (Array Int Int)) ($i2642749 Int) ($a32572742 (Array Int Int)))
    (=> (and ($main_sum166 $a12552740 $a22562741 $a32572742 $a42582743 $a52592744 $a62602745 $a72612746 $a82622747 $a2632748 $i2642749 $x2652750))
        ($main_inv167 $a12552740 $a22562741 $a32572742 $a42582743 $a52592744 $a62602745 $a72612746 $a82622747 $a2632748 0 $x2652750))))

; loop term $main_sum167
(assert
  (forall (($a82622758 (Array Int Int)) ($a2632759 Int) ($a32572753 (Array Int Int)) ($a22562752 (Array Int Int)) ($i2642760 Int) ($a52592755 (Array Int Int)) ($a42582754 (Array Int Int)) ($a62602756 (Array Int Int)) ($x2652761 Int) ($a12552751 (Array Int Int)) ($a72612757 (Array Int Int)))
    (=> (and (not (< $i2642760 100000))
             ($main_inv167 $a12552751 $a22562752 $a32572753 $a42582754 $a52592755 $a62602756 $a72612757 $a82622758 $a2632759 $i2642760 $x2652761))
        ($main_sum167 $a12552751 $a22562752 $a32572753 $a42582754 $a52592755 $a62602756 $a72612757 $a82622758 $a2632759 $i2642760 $x2652761))))

; forwards $main_inv167
(assert
  (forall (($a82622758 (Array Int Int)) ($a2632759 Int) ($a32572753 (Array Int Int)) ($a22562752 (Array Int Int)) ($i2642760 Int) ($a52592755 (Array Int Int)) ($a42582754 (Array Int Int)) ($a62602756 (Array Int Int)) ($x2652761 Int) ($a12552751 (Array Int Int)) ($a72612757 (Array Int Int)))
    (=> (and (< $i2642760 100000)
             ($main_inv167 $a12552751 $a22562752 $a32572753 $a42582754 $a52592755 $a62602756 $a72612757 $a82622758 $a2632759 $i2642760 $x2652761))
        ($main_inv167 $a12552751 $a22562752 $a32572753 (store $a42582754 $i2642760 (select $a32572753 $i2642760)) $a52592755 $a62602756 $a72612757 $a82622758 $a2632759 (+ $i2642760 1) $x2652761))))

; loop entry $main_inv168
(assert
  (forall (($a32572764 (Array Int Int)) ($a52592766 (Array Int Int)) ($a2632770 Int) ($a82622769 (Array Int Int)) ($i2642771 Int) ($a22562763 (Array Int Int)) ($x2652772 Int) ($a62602767 (Array Int Int)) ($a12552762 (Array Int Int)) ($a72612768 (Array Int Int)) ($a42582765 (Array Int Int)))
    (=> (and ($main_sum167 $a12552762 $a22562763 $a32572764 $a42582765 $a52592766 $a62602767 $a72612768 $a82622769 $a2632770 $i2642771 $x2652772))
        ($main_inv168 $a12552762 $a22562763 $a32572764 $a42582765 $a52592766 $a62602767 $a72612768 $a82622769 $a2632770 0 $x2652772))))

; loop term $main_sum168
(assert
  (forall (($a2632781 Int) ($a72612779 (Array Int Int)) ($x2652783 Int) ($a82622780 (Array Int Int)) ($a52592777 (Array Int Int)) ($a22562774 (Array Int Int)) ($a62602778 (Array Int Int)) ($a12552773 (Array Int Int)) ($a32572775 (Array Int Int)) ($a42582776 (Array Int Int)) ($i2642782 Int))
    (=> (and (not (< $i2642782 100000))
             ($main_inv168 $a12552773 $a22562774 $a32572775 $a42582776 $a52592777 $a62602778 $a72612779 $a82622780 $a2632781 $i2642782 $x2652783))
        ($main_sum168 $a12552773 $a22562774 $a32572775 $a42582776 $a52592777 $a62602778 $a72612779 $a82622780 $a2632781 $i2642782 $x2652783))))

; forwards $main_inv168
(assert
  (forall (($a2632781 Int) ($a72612779 (Array Int Int)) ($x2652783 Int) ($a82622780 (Array Int Int)) ($a52592777 (Array Int Int)) ($a22562774 (Array Int Int)) ($a62602778 (Array Int Int)) ($a12552773 (Array Int Int)) ($a32572775 (Array Int Int)) ($a42582776 (Array Int Int)) ($i2642782 Int))
    (=> (and (< $i2642782 100000)
             ($main_inv168 $a12552773 $a22562774 $a32572775 $a42582776 $a52592777 $a62602778 $a72612779 $a82622780 $a2632781 $i2642782 $x2652783))
        ($main_inv168 $a12552773 $a22562774 $a32572775 $a42582776 (store $a52592777 $i2642782 (select $a42582776 $i2642782)) $a62602778 $a72612779 $a82622780 $a2632781 (+ $i2642782 1) $x2652783))))

; loop entry $main_inv169
(assert
  (forall (($a82622791 (Array Int Int)) ($a22562785 (Array Int Int)) ($a12552784 (Array Int Int)) ($a62602789 (Array Int Int)) ($i2642793 Int) ($a52592788 (Array Int Int)) ($x2652794 Int) ($a32572786 (Array Int Int)) ($a42582787 (Array Int Int)) ($a2632792 Int) ($a72612790 (Array Int Int)))
    (=> (and ($main_sum168 $a12552784 $a22562785 $a32572786 $a42582787 $a52592788 $a62602789 $a72612790 $a82622791 $a2632792 $i2642793 $x2652794))
        ($main_inv169 $a12552784 $a22562785 $a32572786 $a42582787 $a52592788 $a62602789 $a72612790 $a82622791 $a2632792 0 $x2652794))))

; loop term $main_sum169
(assert
  (forall (($a22562796 (Array Int Int)) ($i2642804 Int) ($a72612801 (Array Int Int)) ($a82622802 (Array Int Int)) ($a2632803 Int) ($x2652805 Int) ($a42582798 (Array Int Int)) ($a32572797 (Array Int Int)) ($a12552795 (Array Int Int)) ($a62602800 (Array Int Int)) ($a52592799 (Array Int Int)))
    (=> (and (not (< $i2642804 100000))
             ($main_inv169 $a12552795 $a22562796 $a32572797 $a42582798 $a52592799 $a62602800 $a72612801 $a82622802 $a2632803 $i2642804 $x2652805))
        ($main_sum169 $a12552795 $a22562796 $a32572797 $a42582798 $a52592799 $a62602800 $a72612801 $a82622802 $a2632803 $i2642804 $x2652805))))

; forwards $main_inv169
(assert
  (forall (($a22562796 (Array Int Int)) ($i2642804 Int) ($a72612801 (Array Int Int)) ($a82622802 (Array Int Int)) ($a2632803 Int) ($x2652805 Int) ($a42582798 (Array Int Int)) ($a32572797 (Array Int Int)) ($a12552795 (Array Int Int)) ($a62602800 (Array Int Int)) ($a52592799 (Array Int Int)))
    (=> (and (< $i2642804 100000)
             ($main_inv169 $a12552795 $a22562796 $a32572797 $a42582798 $a52592799 $a62602800 $a72612801 $a82622802 $a2632803 $i2642804 $x2652805))
        ($main_inv169 $a12552795 $a22562796 $a32572797 $a42582798 $a52592799 (store $a62602800 $i2642804 (select $a52592799 $i2642804)) $a72612801 $a82622802 $a2632803 (+ $i2642804 1) $x2652805))))

; loop entry $main_inv170
(assert
  (forall (($a2632814 Int) ($a42582809 (Array Int Int)) ($a72612812 (Array Int Int)) ($a62602811 (Array Int Int)) ($a12552806 (Array Int Int)) ($a22562807 (Array Int Int)) ($a32572808 (Array Int Int)) ($a82622813 (Array Int Int)) ($x2652816 Int) ($a52592810 (Array Int Int)) ($i2642815 Int))
    (=> (and ($main_sum169 $a12552806 $a22562807 $a32572808 $a42582809 $a52592810 $a62602811 $a72612812 $a82622813 $a2632814 $i2642815 $x2652816))
        ($main_inv170 $a12552806 $a22562807 $a32572808 $a42582809 $a52592810 $a62602811 $a72612812 $a82622813 $a2632814 0 $x2652816))))

; loop term $main_sum170
(assert
  (forall (($a32572819 (Array Int Int)) ($a72612823 (Array Int Int)) ($a2632825 Int) ($a12552817 (Array Int Int)) ($a42582820 (Array Int Int)) ($x2652827 Int) ($i2642826 Int) ($a52592821 (Array Int Int)) ($a62602822 (Array Int Int)) ($a22562818 (Array Int Int)) ($a82622824 (Array Int Int)))
    (=> (and (not (< $i2642826 100000))
             ($main_inv170 $a12552817 $a22562818 $a32572819 $a42582820 $a52592821 $a62602822 $a72612823 $a82622824 $a2632825 $i2642826 $x2652827))
        ($main_sum170 $a12552817 $a22562818 $a32572819 $a42582820 $a52592821 $a62602822 $a72612823 $a82622824 $a2632825 $i2642826 $x2652827))))

; forwards $main_inv170
(assert
  (forall (($a32572819 (Array Int Int)) ($a72612823 (Array Int Int)) ($a2632825 Int) ($a12552817 (Array Int Int)) ($a42582820 (Array Int Int)) ($x2652827 Int) ($i2642826 Int) ($a52592821 (Array Int Int)) ($a62602822 (Array Int Int)) ($a22562818 (Array Int Int)) ($a82622824 (Array Int Int)))
    (=> (and (< $i2642826 100000)
             ($main_inv170 $a12552817 $a22562818 $a32572819 $a42582820 $a52592821 $a62602822 $a72612823 $a82622824 $a2632825 $i2642826 $x2652827))
        ($main_inv170 $a12552817 $a22562818 $a32572819 $a42582820 $a52592821 $a62602822 (store $a72612823 $i2642826 (select $a62602822 $i2642826)) $a82622824 $a2632825 (+ $i2642826 1) $x2652827))))

; loop entry $main_inv171
(assert
  (forall (($a72612834 (Array Int Int)) ($a32572830 (Array Int Int)) ($i2642837 Int) ($a52592832 (Array Int Int)) ($a62602833 (Array Int Int)) ($a42582831 (Array Int Int)) ($a2632836 Int) ($x2652838 Int) ($a82622835 (Array Int Int)) ($a22562829 (Array Int Int)) ($a12552828 (Array Int Int)))
    (=> (and ($main_sum170 $a12552828 $a22562829 $a32572830 $a42582831 $a52592832 $a62602833 $a72612834 $a82622835 $a2632836 $i2642837 $x2652838))
        ($main_inv171 $a12552828 $a22562829 $a32572830 $a42582831 $a52592832 $a62602833 $a72612834 $a82622835 $a2632836 0 $x2652838))))

; loop term $main_sum171
(assert
  (forall (($a52592843 (Array Int Int)) ($a32572841 (Array Int Int)) ($i2642848 Int) ($a72612845 (Array Int Int)) ($a12552839 (Array Int Int)) ($a2632847 Int) ($a22562840 (Array Int Int)) ($x2652849 Int) ($a82622846 (Array Int Int)) ($a42582842 (Array Int Int)) ($a62602844 (Array Int Int)))
    (=> (and (not (< $i2642848 100000))
             ($main_inv171 $a12552839 $a22562840 $a32572841 $a42582842 $a52592843 $a62602844 $a72612845 $a82622846 $a2632847 $i2642848 $x2652849))
        ($main_sum171 $a12552839 $a22562840 $a32572841 $a42582842 $a52592843 $a62602844 $a72612845 $a82622846 $a2632847 $i2642848 $x2652849))))

; forwards $main_inv171
(assert
  (forall (($a52592843 (Array Int Int)) ($a32572841 (Array Int Int)) ($i2642848 Int) ($a72612845 (Array Int Int)) ($a12552839 (Array Int Int)) ($a2632847 Int) ($a22562840 (Array Int Int)) ($x2652849 Int) ($a82622846 (Array Int Int)) ($a42582842 (Array Int Int)) ($a62602844 (Array Int Int)))
    (=> (and (< $i2642848 100000)
             ($main_inv171 $a12552839 $a22562840 $a32572841 $a42582842 $a52592843 $a62602844 $a72612845 $a82622846 $a2632847 $i2642848 $x2652849))
        ($main_inv171 $a12552839 $a22562840 $a32572841 $a42582842 $a52592843 $a62602844 $a72612845 (store $a82622846 $i2642848 (select $a72612845 $i2642848)) $a2632847 (+ $i2642848 1) $x2652849))))

; loop entry $main_inv172
(assert
  (forall (($a62602855 (Array Int Int)) ($a22562851 (Array Int Int)) ($a32572852 (Array Int Int)) ($x2652860 Int) ($a12552850 (Array Int Int)) ($a2632858 Int) ($a82622857 (Array Int Int)) ($i2642859 Int) ($a52592854 (Array Int Int)) ($a42582853 (Array Int Int)) ($a72612856 (Array Int Int)))
    (=> (and ($main_sum171 $a12552850 $a22562851 $a32572852 $a42582853 $a52592854 $a62602855 $a72612856 $a82622857 $a2632858 $i2642859 $x2652860))
        ($main_inv172 $a12552850 $a22562851 $a32572852 $a42582853 $a52592854 $a62602855 $a72612856 $a82622857 $a2632858 $i2642859 0))))

; loop term $main_sum172
(assert
  (forall (($a32572863 (Array Int Int)) ($i2642870 Int) ($a62602866 (Array Int Int)) ($a22562862 (Array Int Int)) ($a12552861 (Array Int Int)) ($a52592865 (Array Int Int)) ($a2632869 Int) ($a42582864 (Array Int Int)) ($a82622868 (Array Int Int)) ($x2652871 Int) ($a72612867 (Array Int Int)))
    (=> (and (not (< $x2652871 100000))
             ($main_inv172 $a12552861 $a22562862 $a32572863 $a42582864 $a52592865 $a62602866 $a72612867 $a82622868 $a2632869 $i2642870 $x2652871))
        ($main_sum172 $a12552861 $a22562862 $a32572863 $a42582864 $a52592865 $a62602866 $a72612867 $a82622868 $a2632869 $i2642870 $x2652871))))

; __VERIFIER_assert precondition
(assert
  (forall (($a32572863 (Array Int Int)) ($i2642870 Int) ($a62602866 (Array Int Int)) ($a22562862 (Array Int Int)) ($a12552861 (Array Int Int)) ($a52592865 (Array Int Int)) ($a2632869 Int) ($a42582864 (Array Int Int)) ($a82622868 (Array Int Int)) ($x2652871 Int) ($a72612867 (Array Int Int)))
    (=> (and (< $x2652871 100000)
             ($main_inv172 $a12552861 $a22562862 $a32572863 $a42582864 $a52592865 $a62602866 $a72612867 $a82622868 $a2632869 $i2642870 $x2652871))
        ($__VERIFIER_assert_pre (ite (= (select $a12552861 $x2652871) (select $a82622868 $x2652871)) 1 0)))))

; forwards $main_inv172
(assert
  (forall (($a32572863 (Array Int Int)) ($i2642870 Int) ($a62602866 (Array Int Int)) ($a22562862 (Array Int Int)) ($a12552861 (Array Int Int)) ($a52592865 (Array Int Int)) ($a2632869 Int) ($a42582864 (Array Int Int)) ($a82622868 (Array Int Int)) ($x2652871 Int) ($a72612867 (Array Int Int)))
    (=> (and (__VERIFIER_assert (ite (= (select $a12552861 $x2652871) (select $a82622868 $x2652871)) 1 0))
             (< $x2652871 100000)
             ($main_inv172 $a12552861 $a22562862 $a32572863 $a42582864 $a52592865 $a62602866 $a72612867 $a82622868 $a2632869 $i2642870 $x2652871))
        ($main_inv172 $a12552861 $a22562862 $a32572863 $a42582864 $a52592865 $a62602866 $a72612867 $a82622868 $a2632869 $i2642870 (+ $x2652871 1)))))

(check-sat)
